H2 on W(110) 3x3  !Comment line in POSCAR         
      3.2025000000000001
      2.1213203439999999     -1.5000000000000000      0.0000000000000000
      2.1213203439999999      1.5000000000000000      0.0000000000000000
      0.0000000000000000      0.0000000000000000      8.5000000000000000
H W                                               
           2          45
Selective dynamics
Direct
      0.2006294833009682      0.0098350915307047      0.6605541747164276  T   T   T
      0.2845271142686166      0.0171040574839471      0.6541919310832692  T   T   T
      0.0000000000000000      0.0000000000000000      0.0000000000000000  T   T   T                                       
      0.0000000000000000      0.3333333330000000      0.0000000000000000  T   T   T                                       
      0.0000000000000000      0.6666666670000000      0.0000000000000000  T   T   T                                       
      0.3333333330000000      0.0000000000000000      0.0000000000000000  T   T   T                                       
      0.3333333330000000      0.3333333330000000      0.0000000000000000  T   T   T                                       
      0.3333333330000000      0.6666666670000000      0.0000000000000000  T   T   T                                       
      0.6666666670000000      0.0000000000000000      0.0000000000000000  T   T   T                                       
      0.6666666670000000      0.3333333330000000      0.0000000000000000  T   T   T                                       
      0.6666666670000000      0.6666666670000000      0.0000000000000000  T   T   T                                       
      0.1666666670000000      0.1666666670000000      0.0799110000000000  T   T   T                                       
      0.1666666670000000      0.5000000000000000      0.0799110000000000  T   T   T                                       
      0.1666666670000000      0.8333333330000000      0.0799110000000000  T   T   T                                       
      0.5000000000000000      0.1666666670000000      0.0799110000000000  T   T   T                                       
      0.5000000000000000      0.5000000000000000      0.0799110000000000  T   T   T                                       
      0.5000000000000000      0.8333333330000000      0.0799110000000000  T   T   T                                       
      0.8333333330000000      0.1666666670000000      0.0799110000000000  T   T   T                                       
      0.8333333330000000      0.5000000000000000      0.0799110000000000  T   T   T                                       
      0.8333333330000000      0.8333333330000000      0.0799110000000000  T   T   T                                       
      0.0000000000000000      0.0000000000000000      0.1633750000000000  F   F   F                                       
      0.0000000000000000      0.3333333330000000      0.1633750000000000  F   F   F                                       
      0.0000000000000000      0.6666666670000000      0.1633750000000000  F   F   F                                       
      0.3333333330000000      0.0000000000000000      0.1633750000000000  F   F   F                                       
      0.3333333330000000      0.3333333330000000      0.1633750000000000  F   F   F                                       
      0.3333333330000000      0.6666666670000000      0.1633750000000000  F   F   F                                       
      0.6666666670000000      0.0000000000000000      0.1633750000000000  F   F   F                                       
      0.6666666670000000      0.3333333330000000      0.1633750000000000  F   F   F                                       
      0.6666666670000000      0.6666666670000000      0.1633750000000000  F   F   F                                       
      0.1666666670000000      0.1666666670000000      0.2468380000000000  T   T   T                                       
      0.1666666670000000      0.5000000000000000      0.2468380000000000  T   T   T                                       
      0.1666666670000000      0.8333333330000000      0.2468380000000000  T   T   T                                       
      0.5000000000000000      0.1666666670000000      0.2468380000000000  T   T   T                                       
      0.5000000000000000      0.5000000000000000      0.2468380000000000  T   T   T                                       
      0.5000000000000000      0.8333333330000000      0.2468380000000000  T   T   T                                       
      0.8333333330000000      0.1666666670000000      0.2468380000000000  T   T   T                                       
      0.8333333330000000      0.5000000000000000      0.2468380000000000  T   T   T                                       
      0.8333333330000000      0.8333333330000000      0.2468380000000000  T   T   T                                       
      0.0000000000000000      0.0000000000000000      0.3267490000000000  T   T   T                                       
      0.0000000000000000      0.3333333330000000      0.3267490000000000  T   T   T                                       
      0.0000000000000000      0.6666666670000000      0.3267490000000000  T   T   T                                       
      0.3333333330000000      0.0000000000000000      0.3267490000000000  T   T   T                                       
      0.3333333330000000      0.3333333330000000      0.3267490000000000  T   T   T                                       
      0.3333333330000000      0.6666666670000000      0.3267490000000000  T   T   T                                       
      0.6666666670000000      0.0000000000000000      0.3267490000000000  T   T   T                                       
      0.6666666670000000      0.3333333330000000      0.3267490000000000  T   T   T                                       
      0.6666666670000000      0.6666666670000000      0.3267490000000000  T   T   T                                       
 Cartesian
    0.0000000000000000    0.0000000000000000   -0.0535918146579035
    0.0000000000000000    0.0000000000000000   -0.0535918146579035
    0.0000000000000000    0.0000000000000000    0.0000000000000000
    0.0000000000000000    0.0000000000000000    0.0000000000000000
    0.0000000000000000    0.0000000000000000    0.0000000000000000
    0.0000000000000000    0.0000000000000000    0.0000000000000000
    0.0000000000000000    0.0000000000000000    0.0000000000000000
    0.0000000000000000    0.0000000000000000    0.0000000000000000
    0.0000000000000000    0.0000000000000000    0.0000000000000000
    0.0000000000000000    0.0000000000000000    0.0000000000000000
    0.0000000000000000    0.0000000000000000    0.0000000000000000
    0.0000000000000000    0.0000000000000000    0.0000000000000000
    0.0000000000000000    0.0000000000000000    0.0000000000000000
    0.0000000000000000    0.0000000000000000    0.0000000000000000
    0.0000000000000000    0.0000000000000000    0.0000000000000000
    0.0000000000000000    0.0000000000000000    0.0000000000000000
    0.0000000000000000    0.0000000000000000    0.0000000000000000
    0.0000000000000000    0.0000000000000000    0.0000000000000000
    0.0000000000000000    0.0000000000000000    0.0000000000000000
    0.0000000000000000    0.0000000000000000    0.0000000000000000
    0.0000000000000000    0.0000000000000000    0.0000000000000000
    0.0000000000000000    0.0000000000000000    0.0000000000000000
    0.0000000000000000    0.0000000000000000    0.0000000000000000
    0.0000000000000000    0.0000000000000000    0.0000000000000000
    0.0000000000000000    0.0000000000000000    0.0000000000000000
    0.0000000000000000    0.0000000000000000    0.0000000000000000
    0.0000000000000000    0.0000000000000000    0.0000000000000000
    0.0000000000000000    0.0000000000000000    0.0000000000000000
    0.0000000000000000    0.0000000000000000    0.0000000000000000
    0.0000000000000000    0.0000000000000000    0.0000000000000000
    0.0000000000000000    0.0000000000000000    0.0000000000000000
    0.0000000000000000    0.0000000000000000    0.0000000000000000
    0.0000000000000000    0.0000000000000000    0.0000000000000000
    0.0000000000000000    0.0000000000000000    0.0000000000000000
    0.0000000000000000    0.0000000000000000    0.0000000000000000
    0.0000000000000000    0.0000000000000000    0.0000000000000000
    0.0000000000000000    0.0000000000000000    0.0000000000000000
    0.0000000000000000    0.0000000000000000    0.0000000000000000
    0.0000000000000000    0.0000000000000000    0.0000000000000000
    0.0000000000000000    0.0000000000000000    0.0000000000000000
    0.0000000000000000    0.0000000000000000    0.0000000000000000
    0.0000000000000000    0.0000000000000000    0.0000000000000000
    0.0000000000000000    0.0000000000000000    0.0000000000000000
    0.0000000000000000    0.0000000000000000    0.0000000000000000
    0.0000000000000000    0.0000000000000000    0.0000000000000000
    0.0000000000000000    0.0000000000000000    0.0000000000000000
    0.0000000000000000    0.0000000000000000    0.0000000000000000
